benchmarks/bfuzz0/29750297012010586646233143225713101.smt2
(set-logic QF_FP)
(declare-const x0 (_ FloatingPoint 11 53))
(declare-const x1 (_ FloatingPoint 11 53))
(declare-const x2 (_ FloatingPoint 11 53))
(declare-const x3 (_ FloatingPoint 11 53))
(declare-const x4 (_ FloatingPoint 11 53))
(declare-const x5 (_ FloatingPoint 11 53))
(assert (fp.leq (fp.div RNE x0 x4) (fp.add RNE x5 x0)))
(assert (fp.geq (fp.add RNE x2 x5) (fp.neg x2)))
(assert (fp.geq (fp.add RNE x3 x0) (fp.mul RNE x2 x0)))
(assert (fp.lt (fp.div RNE x0 x5) (fp.neg x3)))
(assert (fp.eq (fp.add RNE x1 x3) (fp.neg x2)))
(assert (fp.geq (fp.neg x1) (fp.neg x1)))
(assert (fp.leq (fp.div RNE x3 x0) (fp.sub RNE x0 x3)))
(assert (fp.lt (fp.mul RNE x1 x4) (fp.sub RNE x5 x4)))
(check-sat)
