db/data/29750297012010586646233143225713101.z3.out
sat
-------------------
204.796796693
